38 40
34 27 2
18 19 1
4 11 2
35 34 1
26 26 1
7 7 1
21 7 1
19 35 1
29 5 1
27 17 1
31 11 1
2 5 1
17 30 1
27 24 1
28 7 1
27 9 1
9 4 1
21 26 1
9 21 1
35 17 1
35 9 1
30 6 1
15 25 1
33 30 1
35 27 1
15 1 1
16 18 1
24 15 1
34 13 1
19 7 1
33 6 1
3 27 1
6 34 1
27 33 1
26 9 1
12 28 1
5 27 1
3 23 1
40 40 
40 40 
40 40 
40 40 
40 40 
40 40 
40 40 
40 40 
40 40 
40 40 
40 40 
40 40 
40 40 
40 40 
40 40 
40 40 
40 40 
40 40 
40 40 
40 40 
40 40 
40 40 
40 40 
40 40 
40 40 
40 40 
40 40 
40 40 
40 40 
40 40 
40 40 
40 40 
40 40 
40 40 
40 40 
40 40 
40 40 
40 40 
40 40 
40 40 
